container_length = 3200;
container_width = 2000;
container_height = 1200;
n = 6;
boxes = [|400, 375, 300, 35
         |300, 250, 275, 37
         |500, 350, 225, 23
         |600, 225, 200, 8
         |900, 200, 200, 10
         |700, 250, 250, 17|];
